p edge 424 414
e 1 2
e 1 3
e 1 4
e 1 5
e 1 6
e 1 7
e 1 8
e 1 9
e 1 10
e 1 11
e 1 12
e 1 13
e 1 14
e 1 15
e 1 16
e 1 17
e 1 18
e 1 19
e 1 20
e 1 21
e 1 22
e 1 23
e 1 24
e 1 25
e 1 26
e 1 27
e 1 28
e 1 29
e 1 30
e 31 32
e 31 33
e 31 34
e 31 35
e 31 36
e 31 37
e 31 38
e 31 39
e 31 40
e 31 41
e 31 42
e 31 43
e 31 44
e 31 45
e 31 46
e 31 47
e 31 48
e 31 49
e 31 50
e 31 51
e 31 52
e 31 53
e 31 54
e 31 55
e 31 56
e 31 57
e 31 58
e 31 59
e 31 60
e 31 61
e 31 62
e 31 63
e 31 64
e 31 65
e 31 66
e 31 67
e 31 68
e 31 69
e 31 70
e 31 71
e 31 72
e 31 73
e 31 74
e 31 75
e 31 76
e 31 77
e 31 78
e 31 79
e 31 80
e 31 81
e 31 82
e 31 83
e 31 84
e 31 85
e 31 86
e 31 87
e 31 88
e 31 89
e 31 90
e 31 91
e 31 92
e 31 93
e 31 94
e 31 95
e 31 96
e 31 97
e 31 98
e 31 99
e 31 100
e 31 101
e 31 102
e 31 103
e 31 104
e 31 105
e 31 106
e 31 107
e 108 109
e 108 110
e 108 111
e 108 112
e 108 113
e 108 114
e 108 115
e 108 116
e 108 117
e 108 118
e 108 119
e 108 120
e 108 121
e 108 122
e 108 123
e 108 124
e 108 125
e 108 126
e 108 127
e 108 128
e 108 129
e 108 130
e 108 131
e 108 132
e 108 133
e 108 134
e 108 135
e 108 136
e 137 138
e 137 139
e 137 140
e 137 141
e 137 142
e 137 143
e 137 144
e 137 145
e 137 146
e 137 147
e 137 148
e 137 149
e 137 150
e 137 151
e 137 152
e 137 153
e 137 154
e 137 155
e 137 156
e 137 157
e 137 158
e 137 159
e 137 160
e 137 161
e 137 162
e 137 163
e 137 164
e 137 165
e 137 166
e 137 167
e 137 168
e 137 169
e 137 170
e 137 171
e 137 172
e 137 173
e 137 174
e 137 175
e 137 176
e 137 177
e 137 178
e 137 179
e 180 181
e 180 182
e 180 183
e 180 184
e 180 185
e 180 186
e 180 187
e 180 188
e 180 189
e 180 190
e 180 191
e 180 192
e 180 193
e 180 194
e 180 195
e 180 196
e 180 197
e 180 198
e 180 199
e 180 200
e 180 201
e 180 202
e 180 203
e 180 204
e 180 205
e 180 206
e 180 207
e 180 208
e 180 209
e 180 210
e 180 211
e 180 212
e 180 213
e 180 214
e 180 215
e 180 216
e 180 217
e 218 219
e 218 220
e 218 221
e 218 222
e 218 223
e 218 224
e 218 225
e 218 226
e 218 227
e 218 228
e 218 229
e 218 230
e 218 231
e 218 232
e 218 233
e 218 234
e 218 235
e 218 236
e 218 237
e 218 238
e 218 239
e 218 240
e 218 241
e 218 242
e 218 243
e 218 244
e 218 245
e 218 246
e 218 247
e 218 248
e 218 249
e 218 250
e 218 251
e 218 252
e 218 253
e 218 254
e 218 255
e 218 256
e 218 257
e 218 258
e 218 259
e 218 260
e 218 261
e 218 262
e 218 263
e 218 264
e 218 265
e 218 266
e 218 267
e 218 268
e 269 270
e 269 271
e 269 272
e 269 273
e 269 274
e 269 275
e 269 276
e 269 277
e 269 278
e 269 279
e 269 280
e 269 281
e 269 282
e 269 283
e 269 284
e 269 285
e 269 286
e 269 287
e 269 288
e 269 289
e 269 290
e 269 291
e 269 292
e 269 293
e 269 294
e 269 295
e 269 296
e 269 297
e 269 298
e 269 299
e 269 300
e 269 301
e 269 302
e 269 303
e 269 304
e 269 305
e 269 306
e 269 307
e 269 308
e 309 310
e 309 311
e 309 312
e 309 313
e 309 314
e 309 315
e 309 316
e 309 317
e 309 318
e 309 319
e 309 320
e 321 322
e 321 323
e 321 324
e 321 325
e 321 326
e 321 327
e 321 328
e 321 329
e 321 330
e 321 331
e 321 332
e 321 333
e 321 334
e 321 335
e 321 336
e 321 337
e 321 338
e 321 339
e 321 340
e 321 341
e 321 342
e 321 343
e 321 344
e 321 345
e 321 346
e 321 347
e 321 348
e 321 349
e 321 350
e 321 351
e 321 352
e 321 353
e 321 354
e 321 355
e 321 356
e 321 357
e 321 358
e 321 359
e 321 360
e 321 361
e 321 362
e 321 363
e 321 364
e 321 365
e 321 366
e 321 367
e 321 368
e 321 369
e 321 370
e 321 371
e 321 372
e 321 373
e 321 374
e 321 375
e 321 376
e 321 377
e 321 378
e 321 379
e 321 380
e 321 381
e 321 382
e 383 384
e 383 385
e 383 386
e 383 387
e 383 388
e 383 389
e 383 390
e 383 391
e 383 392
e 383 393
e 383 394
e 383 395
e 383 396
e 383 397
e 383 398
e 383 399
e 383 400
e 383 401
e 383 402
e 383 403
e 383 404
e 383 405
e 383 406
e 383 407
e 383 408
e 383 409
e 383 410
e 383 411
e 383 412
e 383 413
e 383 414
e 383 415
e 383 416
e 383 417
e 383 418
e 383 419
e 383 420
e 383 421
e 383 422
e 383 423
e 383 424
